Running MiniSat on FULL_RUN_MINISAT\cc30e4eedbcf9c3bc110894d08781246-j3037_9_mdd_bm1.cnf... 
============================[ Problem Statistics ]=============================
|                                                                             |
|  Number of variables:         19502                                         |
|  Number of clauses:           82348                                         |
|  Parse time:                   0.13 s                                       |
|                                                                             |
============================[ Search Statistics ]==============================
| Conflicts |          ORIGINAL         |          LEARNT          | Progress |
|           |    Vars  Clauses Literals |    Limit  Clauses Lit/Cl |          |
===============================================================================
|       100 |   18724    81671   199962 |    29946      100     22 |  3.989 % |
|       250 |   18724    81671   199962 |    32940      250     20 |  3.989 % |
|       475 |   18724    81671   199962 |    36234      475     22 |  3.989 % |
|       812 |   18724    81671   199962 |    39858      812     22 |  3.989 % |
|      1318 |   18724    81671   199962 |    43843     1318     27 |  3.989 % |
|      2077 |   18724    81671   199962 |    48228     2077     27 |  3.989 % |
|      3216 |   18724    81671   199962 |    53051     3216     27 |  3.989 % |
|      4924 |   18724    81671   199962 |    58356     4924     27 |  3.989 % |
|      7486 |   18724    81671   199962 |    64191     7486     27 |  3.989 % |
|     11330 |   18724    81671   199962 |    70611    11330     27 |  3.989 % |
|     17096 |   18724    81671   199962 |    77672    17096     28 |  3.989 % |
|     25745 |   18724    81671   199962 |    85439    25745     28 |  3.989 % |
|     38719 |   18724    81671   199962 |    93983    38719     31 |  3.989 % |
|     58180 |   18724    81671   199962 |   103381    58180     32 |  3.989 % |
ERROR: MiniSat process not found for FULL_RUN_MINISAT\d02fae1e84cfbe799c792ba237f08f66-exam_flat_0.04_2018_3.cnf 
Finished MiniSat on FULL_RUN_MINISAT\d02fae1e84cfbe799c792ba237f08f66-exam_flat_0.04_2018_3.cnf 